
Gurobi 8.0.0 (win64, Python) logging started 11/05/18 19:20:50

Academic license - for non-commercial use only
Read LP format model from file model.lp
Reading time = 0.44 seconds
objective_function: 30884 rows, 32349 columns, 103995 nonzeros
Iteration    Objective       Primal Inf.    Dual Inf.      Time
       0      handle free variables                          0s

Restart IIS computation due to numeric trouble ...
Iteration    Objective       Primal Inf.    Dual Inf.      Time
       0      handle free variables                          0s
IIS runtime: 0.41 seconds
